33D32945 STP File, STP Format Version 1.0

SECTION Comment
Name    "i160-245"
Creator "Cees Duin"
Remark  "Incidence graph"
END

SECTION Graph
Nodes 160
Edges 2544
E 1 12 306
E 1 14 296
E 1 19 293
E 1 21 306
E 1 26 192
E 1 40 210
E 1 48 199
E 1 57 200
E 1 60 201
E 1 61 198
E 1 62 192
E 1 66 205
E 1 75 196
E 1 83 201
E 1 85 204
E 1 93 197
E 1 95 206
E 1 105 197
E 1 126 203
E 1 127 206
E 1 132 202
E 1 133 198
E 1 139 204
E 1 140 207
E 1 143 199
E 1 148 205
E 1 153 200
E 1 156 192
E 1 157 202
E 2 4 294
E 2 5 295
E 2 6 295
E 2 8 298
E 2 10 297
E 2 12 307
E 2 20 295
E 2 27 197
E 2 28 210
E 2 33 206
E 2 35 197
E 2 37 203
E 2 40 195
E 2 43 210
E 2 51 200
E 2 57 190
E 2 60 189
E 2 61 210
E 2 80 194
E 2 81 201
E 2 82 191
E 2 86 199
E 2 91 205
E 2 95 205
E 2 97 199
E 2 105 202
E 2 112 204
E 2 114 201
E 2 128 199
E 2 129 200
E 2 137 192
E 2 139 203
E 2 145 190
E 2 151 197
E 2 154 199
E 2 155 197
E 2 156 197
E 2 157 201
E 3 8 294
E 3 11 295
E 3 14 298
E 3 16 298
E 3 24 301
E 3 28 204
E 3 33 189
E 3 42 196
E 3 55 202
E 3 56 198
E 3 62 202
E 3 67 203
E 3 68 200
E 3 70 196
E 3 73 197
E 3 77 201
E 3 84 201
E 3 87 208
E 3 97 201
E 3 106 205
E 3 131 193
E 3 150 207
E 3 154 206
E 3 155 202
E 3 159 198
E 4 6 304
E 4 8 298
E 4 9 298
E 4 10 304
E 4 14 304
E 4 16 302
E 4 18 308
E 4 19 296
E 4 22 297
E 4 29 192
E 4 30 204
E 4 36 209
E 4 38 208
E 4 47 199
E 4 49 200
E 4 54 206
E 4 56 195
E 4 58 209
E 4 64 192
E 4 76 204
E 4 78 196
E 4 83 196
E 4 85 198
E 4 88 203
E 4 97 201
E 4 99 196
E 4 109 193
E 4 119 198
E 4 121 197
E 4 131 197
E 4 133 209
E 4 144 202
E 4 150 206
E 4 152 198
E 4 154 196
E 4 155 191
E 5 22 293
E 5 24 299
E 5 25 195
E 5 35 202
E 5 41 205
E 5 48 198
E 5 49 211
E 5 54 193
E 5 57 204
E 5 62 203
E 5 67 205
E 5 70 199
E 5 72 204
E 5 74 203
E 5 83 202
E 5 85 206
E 5 95 198
E 5 97 201
E 5 107 197
E 5 113 203
E 5 120 204
E 5 123 201
E 5 124 200
E 5 125 201
E 5 132 202
E 5 135 202
E 5 137 206
E 5 146 193
E 5 158 197
E 5 160 197
E 6 8 301
E 6 12 307
E 6 15 301
E 6 17 308
E 6 28 209
E 6 33 201
E 6 39 199
E 6 40 195
E 6 45 199
E 6 48 188
E 6 70 191
E 6 71 201
E 6 76 195
E 6 89 203
E 6 97 204
E 6 98 209
E 6 99 208
E 6 105 209
E 6 113 202
E 6 116 202
E 6 119 205
E 6 126 198
E 6 129 203
E 6 136 194
E 6 137 199
E 6 140 198
E 6 141 202
E 6 147 207
E 6 156 200
E 6 158 201
E 7 13 305
E 7 15 304
E 7 17 295
E 7 24 308
E 7 32 205
E 7 40 202
E 7 49 203
E 7 67 199
E 7 71 193
E 7 74 198
E 7 77 199
E 7 78 198
E 7 81 203
E 7 86 191
E 7 95 201
E 7 96 202
E 7 97 202
E 7 104 196
E 7 111 203
E 7 119 206
E 7 124 208
E 7 126 205
E 7 131 191
E 7 138 204
E 7 139 203
E 7 140 194
E 7 144 201
E 8 17 291
E 8 18 293
E 8 20 298
E 8 22 299
E 8 23 306
E 8 24 302
E 8 32 200
E 8 43 201
E 8 44 192
E 8 46 203
E 8 61 205
E 8 67 197
E 8 69 192
E 8 78 202
E 8 83 204
E 8 84 203
E 8 86 196
E 8 100 209
E 8 101 200
E 8 105 198
E 8 108 194
E 8 113 198
E 8 116 209
E 8 122 197
E 8 127 191
E 8 133 203
E 8 137 203
E 8 140 201
E 8 148 196
E 8 149 196
E 8 151 200
E 9 15 297
E 9 20 305
E 9 23 304
E 9 29 201
E 9 31 193
E 9 37 191
E 9 51 202
E 9 75 205
E 9 78 201
E 9 79 198
E 9 85 202
E 9 91 195
E 9 94 202
E 9 96 198
E 9 98 191
E 9 102 207
E 9 107 214
E 9 118 201
E 9 125 203
E 9 128 196
E 9 129 196
E 9 147 191
E 9 149 204
E 9 155 199
E 10 12 303
E 10 19 307
E 10 20 297
E 10 21 300
E 10 25 190
E 10 37 196
E 10 43 207
E 10 45 194
E 10 46 206
E 10 63 199
E 10 66 197
E 10 71 203
E 10 72 197
E 10 73 204
E 10 76 195
E 10 92 194
E 10 94 204
E 10 98 204
E 10 100 197
E 10 105 194
E 10 110 209
E 10 111 200
E 10 119 189
E 10 125 196
E 10 128 200
E 10 129 208
E 10 136 188
E 10 148 201
E 10 154 204
E 10 156 202
E 10 159 204
E 11 19 299
E 11 24 304
E 11 30 192
E 11 32 203
E 11 34 187
E 11 35 191
E 11 36 200
E 11 47 186
E 11 48 202
E 11 50 197
E 11 53 201
E 11 55 192
E 11 65 197
E 11 74 204
E 11 75 196
E 11 77 205
E 11 83 187
E 11 87 207
E 11 109 186
E 11 120 201
E 11 126 203
E 11 128 196
E 11 131 204
E 11 136 195
E 11 138 199
E 11 143 199
E 11 150 198
E 11 152 207
E 11 153 212
E 11 160 198
E 12 30 196
E 12 37 199
E 12 40 196
E 12 42 198
E 12 46 204
E 12 47 204
E 12 49 192
E 12 52 190
E 12 53 202
E 12 54 200
E 12 62 202
E 12 67 201
E 12 79 200
E 12 82 198
E 12 87 202
E 12 88 195
E 12 94 197
E 12 97 197
E 12 98 197
E 12 100 202
E 12 103 201
E 12 113 212
E 12 116 201
E 12 121 197
E 12 123 206
E 12 124 198
E 12 126 193
E 12 133 189
E 12 137 210
E 12 152 204
E 12 155 206
E 13 17 300
E 13 27 200
E 13 29 207
E 13 30 197
E 13 31 194
E 13 33 197
E 13 34 197
E 13 36 195
E 13 45 194
E 13 57 201
E 13 74 200
E 13 85 202
E 13 88 194
E 13 94 200
E 13 96 192
E 13 103 196
E 13 104 199
E 13 110 196
E 13 111 207
E 13 112 201
E 13 117 201
E 13 140 191
E 13 144 201
E 13 145 202
E 13 147 204
E 13 151 200
E 13 155 189
E 13 157 197
E 14 30 196
E 14 35 200
E 14 52 195
E 14 57 203
E 14 58 205
E 14 61 197
E 14 62 199
E 14 70 198
E 14 84 205
E 14 95 198
E 14 99 199
E 14 101 208
E 14 103 200
E 14 104 197
E 14 109 198
E 14 111 196
E 14 115 207
E 14 119 203
E 14 125 198
E 14 130 193
E 14 132 214
E 14 138 200
E 14 139 189
E 14 142 211
E 14 153 197
E 14 157 199
E 14 160 189
E 15 17 295
E 15 19 302
E 15 22 302
E 15 29 200
E 15 32 199
E 15 42 197
E 15 44 200
E 15 50 195
E 15 61 204
E 15 63 201
E 15 65 200
E 15 73 188
E 15 79 187
E 15 80 195
E 15 83 190
E 15 86 201
E 15 105 203
E 15 114 198
E 15 118 202
E 15 120 197
E 15 124 203
E 15 132 199
E 15 137 197
E 15 142 205
E 15 144 202
E 15 149 200
E 15 152 205
E 15 154 204
E 15 156 207
E 15 158 190
E 16 17 299
E 16 27 199
E 16 38 200
E 16 40 202
E 16 55 192
E 16 60 196
E 16 61 211
E 16 63 202
E 16 64 196
E 16 67 194
E 16 70 197
E 16 72 196
E 16 83 201
E 16 84 204
E 16 94 193
E 16 100 197
E 16 101 193
E 16 109 200
E 16 113 201
E 16 116 193
E 16 118 198
E 16 136 194
E 16 139 202
E 16 142 195
E 16 152 196
E 16 156 201
E 17 18 304
E 17 24 300
E 17 30 200
E 17 32 194
E 17 34 199
E 17 40 206
E 17 41 199
E 17 51 201
E 17 52 197
E 17 55 194
E 17 56 194
E 17 60 201
E 17 64 197
E 17 67 195
E 17 80 193
E 17 85 211
E 17 90 199
E 17 92 192
E 17 108 200
E 17 110 200
E 17 112 197
E 17 119 203
E 17 120 189
E 17 125 206
E 17 131 193
E 17 134 202
E 17 139 198
E 17 143 191
E 18 22 299
E 18 34 204
E 18 37 204
E 18 38 205
E 18 58 198
E 18 60 201
E 18 61 191
E 18 72 199
E 18 81 207
E 18 85 206
E 18 90 198
E 18 91 192
E 18 93 198
E 18 102 191
E 18 105 202
E 18 118 197
E 18 124 206
E 18 130 206
E 18 139 203
E 18 147 204
E 18 149 205
E 18 151 204
E 18 158 198
E 19 20 301
E 19 21 297
E 19 22 292
E 19 26 207
E 19 28 200
E 19 31 198
E 19 32 209
E 19 33 192
E 19 35 195
E 19 39 195
E 19 45 206
E 19 51 198
E 19 62 201
E 19 66 201
E 19 77 191
E 19 79 198
E 19 94 193
E 19 99 203
E 19 110 199
E 19 113 209
E 19 121 201
E 19 124 200
E 19 127 198
E 19 128 199
E 19 129 208
E 19 137 193
E 19 148 200
E 19 158 198
E 19 159 194
E 19 160 186
E 20 22 300
E 20 25 203
E 20 27 199
E 20 34 196
E 20 40 195
E 20 45 198
E 20 46 197
E 20 56 200
E 20 68 201
E 20 71 198
E 20 77 192
E 20 87 194
E 20 89 190
E 20 99 208
E 20 101 205
E 20 104 197
E 20 108 192
E 20 110 198
E 20 119 204
E 20 120 205
E 20 122 197
E 20 128 202
E 20 129 204
E 20 134 204
E 20 141 190
E 20 142 195
E 20 144 206
E 20 145 188
E 20 149 201
E 20 150 196
E 20 160 200
E 21 25 210
E 21 26 203
E 21 31 202
E 21 49 202
E 21 62 199
E 21 63 200
E 21 64 202
E 21 65 196
E 21 66 201
E 21 68 209
E 21 73 196
E 21 78 196
E 21 80 204
E 21 90 200
E 21 91 207
E 21 97 193
E 21 108 199
E 21 111 198
E 21 114 200
E 21 131 200
E 21 139 204
E 21 143 202
E 21 145 197
E 21 149 209
E 21 151 195
E 21 160 196
E 22 34 191
E 22 35 203
E 22 38 199
E 22 44 195
E 22 48 204
E 22 50 199
E 22 53 203
E 22 55 191
E 22 57 197
E 22 58 193
E 22 62 196
E 22 78 207
E 22 80 204
E 22 86 204
E 22 87 202
E 22 89 197
E 22 92 200
E 22 93 206
E 22 99 199
E 22 102 204
E 22 106 194
E 22 111 191
E 22 123 191
E 22 127 196
E 22 130 197
E 22 131 195
E 22 132 209
E 22 133 197
E 22 134 191
E 22 135 205
E 22 140 201
E 22 156 206
E 22 157 205
E 23 36 197
E 23 41 200
E 23 51 206
E 23 52 205
E 23 58 200
E 23 59 204
E 23 69 204
E 23 70 202
E 23 72 205
E 23 94 200
E 23 101 208
E 23 102 204
E 23 110 198
E 23 114 198
E 23 124 205
E 23 129 197
E 23 132 197
E 23 133 196
E 23 140 202
E 23 144 203
E 23 148 202
E 23 149 193
E 23 157 198
E 23 158 194
E 24 30 196
E 24 33 203
E 24 34 198
E 24 48 200
E 24 49 207
E 24 53 197
E 24 60 200
E 24 70 198
E 24 73 201
E 24 78 197
E 24 81 192
E 24 96 200
E 24 97 196
E 24 99 197
E 24 102 204
E 24 110 202
E 24 112 200
E 24 114 200
E 24 118 206
E 24 120 200
E 24 123 208
E 24 129 203
E 24 131 204
E 24 139 204
E 24 141 193
E 24 143 199
E 24 146 205
E 24 147 200
E 24 148 203
E 24 160 193
E 25 26 102
E 25 28 98
E 25 30 101
E 25 40 92
E 25 47 95
E 25 48 93
E 25 59 105
E 25 63 101
E 25 70 104
E 25 72 98
E 25 78 94
E 25 91 102
E 25 95 102
E 25 96 106
E 25 102 102
E 25 129 100
E 25 130 93
E 25 131 106
E 25 135 98
E 25 138 99
E 25 140 97
E 25 148 112
E 25 149 100
E 25 156 105
E 26 29 95
E 26 30 105
E 26 39 99
E 26 43 103
E 26 61 99
E 26 70 106
E 26 73 104
E 26 74 99
E 26 76 98
E 26 86 101
E 26 91 108
E 26 95 90
E 26 99 95
E 26 107 105
E 26 109 103
E 26 116 107
E 26 119 101
E 26 126 96
E 26 129 106
E 26 132 90
E 26 136 95
E 26 137 95
E 26 142 96
E 26 143 102
E 26 144 89
E 26 145 99
E 26 146 102
E 26 157 104
E 27 33 88
E 27 35 99
E 27 37 92
E 27 40 108
E 27 46 96
E 27 49 101
E 27 57 90
E 27 71 88
E 27 74 95
E 27 77 106
E 27 78 104
E 27 79 100
E 27 82 105
E 27 83 96
E 27 86 108
E 27 95 100
E 27 96 100
E 27 97 103
E 27 98 97
E 27 100 105
E 27 101 94
E 27 103 104
E 27 104 96
E 27 113 104
E 27 118 101
E 27 119 104
E 27 120 94
E 27 130 103
E 27 135 99
E 27 136 105
E 27 137 107
E 27 145 93
E 27 148 95
E 27 149 92
E 27 153 95
E 27 157 96
E 27 159 102
E 28 35 100
E 28 39 92
E 28 49 94
E 28 53 104
E 28 54 101
E 28 69 98
E 28 73 98
E 28 74 97
E 28 76 99
E 28 77 100
E 28 86 102
E 28 94 95
E 28 95 98
E 28 100 97
E 28 103 93
E 28 109 94
E 28 124 104
E 28 128 101
E 28 130 100
E 28 131 96
E 28 133 95
E 28 142 102
E 28 152 106
E 28 155 104
E 29 34 101
E 29 43 96
E 29 45 95
E 29 46 97
E 29 53 93
E 29 58 103
E 29 62 98
E 29 72 93
E 29 76 96
E 29 83 104
E 29 84 103
E 29 91 93
E 29 92 108
E 29 97 106
E 29 104 107
E 29 105 101
E 29 123 110
E 29 125 90
E 29 127 100
E 29 131 101
E 29 133 98
E 29 138 97
E 29 139 95
E 29 141 103
E 29 142 107
E 29 144 92
E 29 153 105
E 30 41 104
E 30 48 96
E 30 50 96
E 30 53 89
E 30 68 104
E 30 70 110
E 30 71 103
E 30 73 101
E 30 81 103
E 30 82 94
E 30 85 96
E 30 89 101
E 30 90 95
E 30 91 96
E 30 92 97
E 30 93 92
E 30 96 106
E 30 101 94
E 30 104 105
E 30 107 98
E 30 108 103
E 30 114 87
E 30 119 93
E 30 122 102
E 30 136 96
E 30 152 99
E 30 154 100
E 31 32 84
E 31 33 108
E 31 35 96
E 31 39 106
E 31 42 95
E 31 50 98
E 31 60 102
E 31 66 99
E 31 71 99
E 31 72 106
E 31 75 101
E 31 80 105
E 31 85 99
E 31 103 108
E 31 109 92
E 31 112 100
E 31 115 95
E 31 122 109
E 31 127 95
E 31 129 104
E 31 136 102
E 31 138 97
E 31 142 97
E 31 145 96
E 31 148 97
E 31 150 101
E 31 153 99
E 31 160 102
E 32 36 108
E 32 37 98
E 32 39 103
E 32 49 99
E 32 50 109
E 32 52 103
E 32 58 97
E 32 60 100
E 32 68 101
E 32 76 96
E 32 79 91
E 32 81 91
E 32 83 104
E 32 85 103
E 32 86 100
E 32 90 106
E 32 94 97
E 32 98 99
E 32 101 97
E 32 106 104
E 32 112 95
E 32 115 101
E 32 116 97
E 32 117 103
E 32 125 99
E 32 126 98
E 32 127 96
E 32 133 92
E 32 135 105
E 32 139 105
E 32 141 98
E 32 147 95
E 32 148 93
E 32 152 98
E 32 153 100
E 32 157 102
E 32 158 96
E 33 42 98
E 33 45 95
E 33 49 97
E 33 50 101
E 33 55 99
E 33 60 99
E 33 63 96
E 33 65 97
E 33 68 105
E 33 71 99
E 33 73 95
E 33 76 102
E 33 78 92
E 33 82 91
E 33 84 100
E 33 85 98
E 33 86 100
E 33 90 99
E 33 93 108
E 33 110 96
E 33 131 103
E 33 141 102
E 33 144 95
E 33 150 101
E 33 156 102
E 33 158 104
E 34 36 100
E 34 50 93
E 34 59 97
E 34 60 100
E 34 63 99
E 34 67 97
E 34 72 102
E 34 77 102
E 34 80 93
E 34 83 98
E 34 85 96
E 34 89 98
E 34 90 102
E 34 91 104
E 34 94 99
E 34 96 93
E 34 114 105
E 34 116 98
E 34 121 100
E 34 129 111
E 34 130 114
E 34 133 108
E 34 140 107
E 34 142 98
E 34 144 101
E 34 146 99
E 34 155 99
E 34 156 103
E 35 37 112
E 35 39 103
E 35 48 96
E 35 55 94
E 35 59 104
E 35 63 95
E 35 65 90
E 35 66 95
E 35 69 96
E 35 75 112
E 35 79 101
E 35 84 101
E 35 86 95
E 35 94 104
E 35 98 106
E 35 100 100
E 35 110 97
E 35 116 98
E 35 118 105
E 35 120 101
E 35 131 104
E 35 135 93
E 35 137 106
E 35 139 94
E 35 145 95
E 35 146 104
E 35 152 99
E 36 38 101
E 36 59 106
E 36 63 97
E 36 71 95
E 36 76 98
E 36 78 96
E 36 79 95
E 36 80 97
E 36 84 88
E 36 88 104
E 36 90 105
E 36 92 102
E 36 98 101
E 36 104 94
E 36 105 93
E 36 110 100
E 36 115 92
E 36 116 100
E 36 119 95
E 36 127 105
E 36 128 99
E 36 131 97
E 36 132 98
E 36 136 106
E 36 141 102
E 36 146 105
E 36 153 98
E 36 156 106
E 37 45 94
E 37 46 99
E 37 64 99
E 37 73 91
E 37 80 99
E 37 83 95
E 37 113 108
E 37 115 92
E 37 120 97
E 37 121 99
E 37 123 92
E 37 125 103
E 37 131 99
E 37 139 100
E 37 140 94
E 37 151 97
E 37 152 97
E 37 159 99
E 38 46 92
E 38 47 97
E 38 49 96
E 38 52 108
E 38 55 102
E 38 58 99
E 38 61 107
E 38 66 97
E 38 67 103
E 38 70 97
E 38 74 104
E 38 76 104
E 38 80 100
E 38 84 99
E 38 85 98
E 38 87 96
E 38 94 104
E 38 96 103
E 38 107 98
E 38 112 99
E 38 114 95
E 38 119 103
E 38 121 95
E 38 133 95
E 38 153 101
E 38 157 107
E 38 160 99
E 39 44 97
E 39 51 98
E 39 55 102
E 39 57 102
E 39 61 97
E 39 65 100
E 39 75 102
E 39 76 106
E 39 77 96
E 39 80 102
E 39 82 103
E 39 91 100
E 39 103 99
E 39 110 96
E 39 112 104
E 39 116 110
E 39 125 96
E 39 137 88
E 39 139 102
E 39 140 98
E 39 148 97
E 39 153 94
E 39 156 94
E 40 42 97
E 40 48 108
E 40 50 101
E 40 53 91
E 40 55 90
E 40 56 100
E 40 61 95
E 40 68 104
E 40 70 96
E 40 71 105
E 40 74 99
E 40 75 90
E 40 77 94
E 40 78 90
E 40 82 102
E 40 85 92
E 40 87 93
E 40 93 96
E 40 95 96
E 40 96 96
E 40 100 99
E 40 111 95
E 40 113 105
E 40 119 101
E 40 123 94
E 40 125 109
E 40 127 98
E 40 131 96
E 40 136 103
E 40 138 92
E 40 139 95
E 40 142 104
E 40 146 103
E 40 159 105
E 40 160 97
E 41 51 100
E 41 52 108
E 41 53 98
E 41 56 105
E 41 61 98
E 41 62 95
E 41 66 104
E 41 70 97
E 41 85 105
E 41 87 107
E 41 91 98
E 41 94 97
E 41 97 95
E 41 102 102
E 41 115 99
E 41 119 102
E 41 120 97
E 41 131 97
E 41 140 106
E 41 146 106
E 41 152 87
E 41 155 101
E 41 159 92
E 42 43 98
E 42 45 110
E 42 54 99
E 42 60 94
E 42 61 108
E 42 70 102
E 42 75 95
E 42 81 90
E 42 85 110
E 42 91 108
E 42 92 100
E 42 99 101
E 42 100 100
E 42 101 97
E 42 119 100
E 42 122 89
E 42 131 105
E 42 133 110
E 42 134 111
E 42 142 100
E 42 143 94
E 42 148 105
E 42 150 105
E 42 152 99
E 42 158 111
E 43 48 102
E 43 61 87
E 43 65 96
E 43 66 98
E 43 77 98
E 43 86 103
E 43 95 87
E 43 99 100
E 43 101 96
E 43 104 99
E 43 107 106
E 43 109 106
E 43 111 91
E 43 118 99
E 43 123 110
E 43 125 104
E 43 131 99
E 43 142 114
E 43 143 105
E 43 146 110
E 43 149 103
E 43 155 97
E 43 157 105
E 44 45 99
E 44 48 100
E 44 61 90
E 44 64 99
E 44 66 100
E 44 74 111
E 44 78 102
E 44 79 96
E 44 86 103
E 44 88 100
E 44 92 104
E 44 93 101
E 44 97 97
E 44 98 98
E 44 102 97
E 44 107 102
E 44 136 96
E 44 155 104
E 44 157 103
E 44 159 100
E 45 53 100
E 45 57 102
E 45 60 102
E 45 61 95
E 45 67 95
E 45 80 95
E 45 81 98
E 45 82 94
E 45 86 100
E 45 88 104
E 45 91 106
E 45 94 97
E 45 98 91
E 45 99 104
E 45 100 96
E 45 104 96
E 45 111 95
E 45 118 100
E 45 121 98
E 45 122 94
E 45 123 106
E 45 127 102
E 45 135 96
E 45 142 96
E 45 145 91
E 45 147 100
E 45 153 106
E 45 156 93
E 45 159 105
E 45 160 110
E 46 47 95
E 46 48 101
E 46 51 107
E 46 65 113
E 46 69 104
E 46 77 89
E 46 78 105
E 46 81 101
E 46 86 106
E 46 89 102
E 46 95 96
E 46 99 98
E 46 103 97
E 46 104 95
E 46 106 102
E 46 118 103
E 46 123 104
E 46 124 92
E 46 125 101
E 46 128 104
E 46 134 96
E 46 137 92
E 46 144 101
E 46 147 99
E 46 152 98
E 47 49 91
E 47 52 100
E 47 54 93
E 47 63 102
E 47 72 101
E 47 77 95
E 47 78 97
E 47 86 100
E 47 94 97
E 47 95 102
E 47 101 98
E 47 107 99
E 47 109 99
E 47 115 99
E 47 138 101
E 47 139 91
E 47 142 101
E 47 146 104
E 47 148 102
E 47 154 97
E 47 159 101
E 48 49 97
E 48 56 93
E 48 58 102
E 48 65 104
E 48 76 100
E 48 79 101
E 48 80 96
E 48 89 105
E 48 91 96
E 48 99 87
E 48 100 98
E 48 101 98
E 48 112 91
E 48 113 101
E 48 120 98
E 48 121 93
E 48 131 103
E 48 141 105
E 48 145 100
E 48 151 99
E 48 154 102
E 48 157 95
E 49 51 99
E 49 52 99
E 49 55 100
E 49 59 97
E 49 63 105
E 49 68 94
E 49 70 93
E 49 74 103
E 49 80 94
E 49 81 108
E 49 82 99
E 49 89 103
E 49 91 106
E 49 93 100
E 49 95 101
E 49 96 101
E 49 97 96
E 49 100 111
E 49 104 100
E 49 108 97
E 49 110 92
E 49 116 102
E 49 119 89
E 49 121 104
E 49 122 105
E 49 125 98
E 49 127 104
E 49 128 97
E 49 142 97
E 49 144 102
E 49 150 93
E 49 152 99
E 50 52 93
E 50 55 94
E 50 56 94
E 50 65 108
E 50 68 101
E 50 70 107
E 50 77 92
E 50 78 106
E 50 80 102
E 50 88 105
E 50 95 102
E 50 98 104
E 50 107 103
E 50 110 99
E 50 115 98
E 50 116 97
E 50 122 94
E 50 126 101
E 50 128 106
E 50 129 97
E 50 130 90
E 50 133 104
E 50 137 102
E 50 139 96
E 50 140 97
E 50 145 103
E 50 146 98
E 50 151 94
E 51 54 101
E 51 64 96
E 51 66 102
E 51 82 100
E 51 83 102
E 51 86 109
E 51 89 99
E 51 95 98
E 51 98 105
E 51 105 110
E 51 114 100
E 51 125 101
E 51 133 98
E 51 146 97
E 51 152 97
E 51 153 102
E 52 57 96
E 52 62 101
E 52 66 93
E 52 73 98
E 52 76 89
E 52 78 94
E 52 95 95
E 52 98 107
E 52 103 97
E 52 104 91
E 52 107 93
E 52 108 95
E 52 113 106
E 52 117 109
E 52 121 101
E 52 128 103
E 52 136 95
E 52 137 104
E 52 139 97
E 52 142 99
E 52 150 106
E 52 155 102
E 52 160 96
E 53 65 99
E 53 82 101
E 53 86 97
E 53 102 97
E 53 103 95
E 53 119 104
E 53 123 107
E 53 137 95
E 53 138 99
E 53 139 103
E 53 140 93
E 53 145 99
E 53 147 91
E 54 55 104
E 54 58 98
E 54 62 101
E 54 70 102
E 54 73 93
E 54 80 95
E 54 86 96
E 54 89 97
E 54 90 98
E 54 96 90
E 54 100 95
E 54 101 97
E 54 108 102
E 54 112 91
E 54 113 85
E 54 120 99
E 54 121 109
E 54 124 96
E 54 125 90
E 54 131 111
E 54 132 98
E 54 134 94
E 54 138 99
E 54 139 95
E 54 145 88
E 54 154 109
E 54 157 96
E 55 56 100
E 55 58 101
E 55 62 98
E 55 68 98
E 55 69 102
E 55 70 105
E 55 75 95
E 55 82 102
E 55 92 98
E 55 94 102
E 55 96 91
E 55 101 96
E 55 110 96
E 55 115 97
E 55 125 97
E 55 129 105
E 55 134 107
E 55 140 101
E 55 145 92
E 55 146 94
E 55 147 96
E 55 152 108
E 55 159 111
E 56 60 103
E 56 65 100
E 56 66 94
E 56 67 94
E 56 70 101
E 56 75 99
E 56 76 101
E 56 77 99
E 56 81 98
E 56 85 99
E 56 87 96
E 56 88 98
E 56 95 98
E 56 115 103
E 56 118 102
E 56 123 95
E 56 125 94
E 56 127 96
E 56 129 93
E 56 138 101
E 56 142 94
E 56 144 101
E 56 152 106
E 56 154 97
E 57 59 93
E 57 71 93
E 57 75 104
E 57 88 97
E 57 90 99
E 57 93 98
E 57 102 100
E 57 108 102
E 57 113 105
E 57 118 102
E 57 122 100
E 57 124 100
E 57 133 94
E 57 138 95
E 57 142 95
E 58 59 105
E 58 62 93
E 58 67 105
E 58 69 108
E 58 71 97
E 58 72 103
E 58 76 105
E 58 77 101
E 58 81 96
E 58 87 101
E 58 92 104
E 58 96 100
E 58 97 95
E 58 98 104
E 58 106 94
E 58 108 104
E 58 109 102
E 58 126 93
E 58 130 89
E 58 144 98
E 58 150 98
E 58 152 103
E 58 158 96
E 58 159 94
E 59 64 101
E 59 66 100
E 59 69 92
E 59 74 100
E 59 78 105
E 59 84 100
E 59 92 97
E 59 93 101
E 59 94 105
E 59 101 99
E 59 102 91
E 59 104 105
E 59 108 100
E 59 114 98
E 59 116 100
E 59 124 98
E 59 130 102
E 59 132 100
E 59 134 92
E 59 135 90
E 59 138 106
E 59 143 91
E 59 145 96
E 59 146 105
E 59 156 98
E 59 157 100
E 59 158 87
E 59 159 98
E 60 61 100
E 60 66 105
E 60 68 100
E 60 76 101
E 60 77 108
E 60 80 105
E 60 83 99
E 60 86 94
E 60 92 100
E 60 93 99
E 60 97 100
E 60 98 99
E 60 100 100
E 60 102 96
E 60 105 99
E 60 106 103
E 60 108 101
E 60 126 103
E 60 127 105
E 60 134 100
E 60 137 97
E 60 146 101
E 60 149 107
E 60 151 107
E 60 156 101
E 61 62 93
E 61 63 95
E 61 64 102
E 61 69 101
E 61 71 105
E 61 74 101
E 61 92 95
E 61 97 106
E 61 98 106
E 61 100 97
E 61 108 97
E 61 117 110
E 61 118 95
E 61 124 96
E 61 125 91
E 61 127 96
E 61 136 107
E 61 145 98
E 61 151 106
E 61 158 97
E 62 66 105
E 62 71 94
E 62 74 106
E 62 81 94
E 62 89 95
E 62 90 99
E 62 94 99
E 62 96 101
E 62 109 108
E 62 111 101
E 62 115 102
E 62 123 99
E 62 124 86
E 62 131 89
E 62 134 90
E 62 138 83
E 62 147 102
E 62 149 104
E 62 151 91
E 62 158 98
E 62 159 107
E 63 68 96
E 63 74 85
E 63 76 95
E 63 83 97
E 63 84 101
E 63 110 102
E 63 115 93
E 63 117 101
E 63 120 107
E 63 121 104
E 63 123 100
E 63 139 92
E 63 145 102
E 63 148 96
E 63 149 99
E 63 153 100
E 63 156 99
E 63 157 100
E 63 158 97
E 63 159 104
E 64 65 94
E 64 84 105
E 64 98 102
E 64 104 104
E 64 106 105
E 64 107 104
E 64 110 105
E 64 113 103
E 64 117 93
E 64 118 96
E 64 119 99
E 64 120 108
E 64 123 105
E 64 124 93
E 64 128 106
E 64 136 98
E 64 145 93
E 64 149 99
E 64 151 103
E 64 158 102
E 65 68 109
E 65 72 99
E 65 76 90
E 65 84 100
E 65 89 95
E 65 90 93
E 65 96 107
E 65 98 100
E 65 109 103
E 65 111 109
E 65 113 97
E 65 118 100
E 65 119 108
E 65 122 98
E 65 123 102
E 65 125 96
E 65 127 96
E 65 131 98
E 65 138 99
E 65 139 95
E 65 148 105
E 65 154 100
E 66 73 100
E 66 75 99
E 66 80 104
E 66 81 101
E 66 92 94
E 66 96 95
E 66 107 101
E 66 115 94
E 66 116 103
E 66 118 98
E 66 123 99
E 66 127 100
E 66 150 98
E 66 151 98
E 66 152 98
E 67 68 98
E 67 79 104
E 67 88 100
E 67 91 100
E 67 93 100
E 67 106 110
E 67 112 98
E 67 122 102
E 67 124 95
E 67 128 100
E 67 138 99
E 67 139 103
E 67 140 97
E 67 144 105
E 67 151 96
E 68 81 102
E 68 85 104
E 68 86 108
E 68 89 102
E 68 92 96
E 68 95 96
E 68 97 101
E 68 100 106
E 68 102 106
E 68 106 89
E 68 109 101
E 68 114 99
E 68 118 89
E 68 119 94
E 68 120 95
E 68 126 105
E 68 129 95
E 68 133 91
E 68 137 106
E 68 142 104
E 68 144 98
E 68 146 106
E 69 71 108
E 69 77 100
E 69 87 95
E 69 89 101
E 69 93 105
E 69 98 105
E 69 101 101
E 69 108 101
E 69 111 94
E 69 114 107
E 69 131 103
E 69 134 97
E 69 136 105
E 69 138 102
E 69 141 107
E 69 145 94
E 69 146 93
E 69 149 107
E 70 71 102
E 70 72 96
E 70 84 100
E 70 93 97
E 70 98 101
E 70 100 101
E 70 112 106
E 70 113 102
E 70 124 101
E 70 125 102
E 70 128 108
E 70 143 102
E 70 144 104
E 70 149 95
E 71 80 96
E 71 88 100
E 71 93 107
E 71 95 107
E 71 96 95
E 71 101 98
E 71 105 100
E 71 107 92
E 71 114 100
E 71 140 95
E 71 150 87
E 71 156 93
E 72 83 106
E 72 104 91
E 72 125 98
E 72 126 103
E 72 129 102
E 72 136 104
E 72 142 107
E 72 144 100
E 72 156 100
E 72 157 106
E 72 160 96
E 73 76 94
E 73 89 94
E 73 98 108
E 73 104 99
E 73 108 98
E 73 112 102
E 73 113 97
E 73 115 100
E 73 121 110
E 73 122 98
E 73 130 95
E 73 146 99
E 73 148 98
E 73 152 95
E 73 157 104
E 74 82 103
E 74 93 95
E 74 98 99
E 74 101 101
E 74 103 94
E 74 109 95
E 74 111 104
E 74 123 117
E 74 141 102
E 74 153 97
E 74 156 99
E 75 76 95
E 75 77 105
E 75 83 98
E 75 89 106
E 75 92 101
E 75 97 107
E 75 104 94
E 75 109 104
E 75 110 108
E 75 111 108
E 75 114 99
E 75 117 98
E 75 128 92
E 75 134 105
E 75 137 96
E 75 144 98
E 75 153 96
E 75 157 103
E 76 78 100
E 76 81 98
E 76 82 107
E 76 83 92
E 76 89 106
E 76 104 93
E 76 108 100
E 76 116 93
E 76 118 96
E 76 119 105
E 76 121 104
E 76 122 92
E 76 132 104
E 76 134 97
E 76 140 97
E 76 141 97
E 76 143 104
E 76 144 96
E 76 153 97
E 77 79 102
E 77 82 102
E 77 86 104
E 77 87 95
E 77 89 107
E 77 93 98
E 77 99 96
E 77 100 115
E 77 103 96
E 77 119 103
E 77 121 105
E 77 122 99
E 77 138 91
E 77 141 87
E 77 144 101
E 77 151 106
E 77 154 99
E 77 156 102
E 77 160 95
E 78 81 95
E 78 90 90
E 78 98 105
E 78 101 97
E 78 107 99
E 78 115 106
E 78 125 94
E 78 129 103
E 78 143 99
E 78 145 102
E 78 148 102
E 78 156 101
E 79 93 104
E 79 94 92
E 79 103 96
E 79 105 100
E 79 106 105
E 79 107 97
E 79 117 100
E 79 118 94
E 79 119 102
E 79 132 100
E 79 148 104
E 79 149 103
E 79 150 98
E 79 159 101
E 80 87 99
E 80 99 91
E 80 101 97
E 80 102 91
E 80 105 102
E 80 107 105
E 80 108 108
E 80 112 98
E 80 114 95
E 80 116 104
E 80 118 100
E 80 120 103
E 80 125 91
E 80 126 105
E 80 132 104
E 80 136 100
E 80 139 97
E 80 140 100
E 80 149 97
E 80 155 97
E 80 156 95
E 80 160 102
E 81 83 98
E 81 85 100
E 81 98 95
E 81 100 95
E 81 107 101
E 81 112 98
E 81 114 97
E 81 118 101
E 81 122 95
E 81 126 99
E 81 130 100
E 81 138 106
E 81 141 107
E 81 142 111
E 81 154 95
E 81 156 102
E 81 160 99
E 82 85 91
E 82 86 95
E 82 89 94
E 82 91 100
E 82 98 104
E 82 102 104
E 82 107 98
E 82 115 106
E 82 116 103
E 82 131 103
E 82 133 93
E 82 134 100
E 82 153 108
E 82 157 107
E 82 159 101
E 83 90 101
E 83 106 100
E 83 109 91
E 83 110 97
E 83 114 108
E 83 117 99
E 83 131 106
E 83 132 100
E 83 134 96
E 83 143 104
E 83 152 90
E 83 156 92
E 83 158 107
E 84 90 99
E 84 94 90
E 84 96 97
E 84 99 104
E 84 105 89
E 84 108 102
E 84 119 91
E 84 121 106
E 84 123 105
E 84 126 97
E 84 130 99
E 84 131 98
E 84 138 87
E 84 142 99
E 84 154 95
E 84 156 98
E 84 160 100
E 85 89 93
E 85 90 99
E 85 92 96
E 85 96 91
E 85 99 98
E 85 104 105
E 85 112 99
E 85 118 92
E 85 120 103
E 85 122 89
E 85 125 109
E 85 127 96
E 85 128 101
E 85 145 104
E 85 149 99
E 86 87 97
E 86 88 98
E 86 107 101
E 86 110 94
E 86 111 99
E 86 117 102
E 86 126 100
E 86 129 109
E 86 133 100
E 86 137 98
E 86 143 109
E 86 148 96
E 86 156 101
E 87 91 105
E 87 95 99
E 87 106 105
E 87 111 102
E 87 112 107
E 87 115 96
E 87 119 94
E 87 120 96
E 87 129 91
E 87 132 93
E 87 137 113
E 87 138 100
E 87 143 98
E 87 144 104
E 87 145 101
E 87 149 100
E 87 150 94
E 87 154 99
E 87 159 97
E 88 90 97
E 88 91 96
E 88 94 102
E 88 100 97
E 88 108 92
E 88 111 106
E 88 117 100
E 88 127 102
E 88 133 100
E 88 135 102
E 88 136 101
E 88 141 99
E 88 145 97
E 88 146 102
E 88 151 107
E 88 156 97
E 88 159 103
E 89 91 94
E 89 92 104
E 89 99 97
E 89 119 106
E 89 122 97
E 89 127 98
E 89 145 93
E 89 149 95
E 89 159 98
E 90 93 109
E 90 94 100
E 90 96 100
E 90 129 106
E 90 139 93
E 90 140 98
E 90 150 98
E 90 151 101
E 90 155 103
E 90 158 96
E 90 160 101
E 91 97 106
E 91 112 98
E 91 125 92
E 91 147 94
E 91 150 99
E 91 153 107
E 91 157 107
E 92 109 94
E 92 112 95
E 92 118 97
E 92 122 112
E 92 123 105
E 92 133 100
E 92 134 95
E 92 137 105
E 92 138 104
E 92 140 98
E 92 143 92
E 93 105 114
E 93 107 112
E 93 108 106
E 93 112 91
E 93 114 99
E 93 120 94
E 93 122 103
E 93 126 103
E 93 130 100
E 93 139 99
E 93 141 100
E 93 143 103
E 93 144 92
E 93 147 101
E 93 150 92
E 93 152 102
E 93 157 100
E 93 160 94
E 94 104 94
E 94 117 97
E 94 123 100
E 94 132 104
E 94 139 99
E 94 141 103
E 94 143 100
E 94 148 92
E 94 149 89
E 94 154 97
E 94 157 99
E 95 101 85
E 95 104 98
E 95 111 99
E 95 123 94
E 95 128 104
E 95 133 86
E 95 135 97
E 95 138 100
E 95 140 96
E 95 145 104
E 95 153 99
E 95 155 96
E 95 159 96
E 96 99 92
E 96 102 101
E 96 106 99
E 96 118 99
E 96 125 98
E 96 129 99
E 96 134 87
E 96 142 81
E 96 160 103
E 97 101 101
E 97 105 102
E 97 107 94
E 97 113 88
E 97 116 98
E 97 121 102
E 97 126 101
E 97 137 105
E 98 100 103
E 98 102 101
E 98 110 98
E 98 111 101
E 98 126 104
E 98 127 106
E 98 128 99
E 98 135 103
E 98 137 90
E 98 140 109
E 98 144 99
E 98 153 103
E 98 155 97
E 99 101 109
E 99 106 105
E 99 109 96
E 99 117 101
E 99 125 105
E 99 127 107
E 99 128 97
E 99 134 97
E 99 141 96
E 99 142 98
E 99 145 96
E 99 147 103
E 99 154 95
E 99 156 98
E 99 159 97
E 100 102 106
E 100 114 99
E 100 118 103
E 100 121 103
E 100 124 99
E 100 132 104
E 100 137 98
E 100 143 104
E 100 144 96
E 100 150 105
E 100 156 100
E 100 158 104
E 101 102 107
E 101 105 115
E 101 121 108
E 101 122 104
E 101 130 97
E 101 143 98
E 101 160 98
E 102 106 107
E 102 109 97
E 102 117 88
E 102 138 104
E 102 140 100
E 102 150 98
E 102 151 98
E 102 154 96
E 102 155 98
E 102 159 95
E 103 106 95
E 103 108 101
E 103 111 102
E 103 112 103
E 103 115 95
E 103 117 110
E 103 128 104
E 103 129 92
E 103 134 102
E 103 145 96
E 103 147 96
E 103 157 99
E 103 159 102
E 103 160 104
E 104 105 101
E 104 109 101
E 104 115 96
E 104 116 92
E 104 142 93
E 104 144 109
E 104 147 100
E 104 154 93
E 104 155 98
E 105 107 101
E 105 108 89
E 105 116 98
E 105 117 91
E 105 146 99
E 105 147 101
E 105 149 95
E 106 112 99
E 106 114 103
E 106 115 106
E 106 117 92
E 106 137 99
E 106 141 105
E 106 147 100
E 106 150 102
E 106 151 97
E 106 153 107
E 106 160 99
E 107 108 94
E 107 118 110
E 107 120 94
E 107 126 102
E 107 127 99
E 107 133 92
E 107 136 109
E 107 148 101
E 107 159 102
E 107 160 106
E 108 111 106
E 108 115 103
E 108 116 94
E 108 121 93
E 108 136 97
E 108 138 107
E 108 145 99
E 108 150 95
E 109 110 93
E 109 114 103
E 109 116 100
E 109 120 96
E 109 121 104
E 109 122 97
E 109 124 93
E 109 125 100
E 109 130 98
E 109 134 103
E 109 135 110
E 109 140 101
E 109 145 99
E 109 153 102
E 109 157 99
E 110 113 106
E 110 118 101
E 110 121 100
E 110 125 102
E 110 126 97
E 110 129 89
E 110 134 95
E 110 137 95
E 110 145 96
E 110 152 89
E 110 158 94
E 110 159 100
E 111 112 104
E 111 116 98
E 111 117 110
E 111 118 99
E 111 122 106
E 111 126 101
E 111 128 101
E 111 133 105
E 111 138 107
E 111 141 106
E 111 156 105
E 111 158 105
E 112 116 106
E 112 119 108
E 112 121 100
E 112 124 109
E 112 125 101
E 112 134 102
E 112 135 101
E 112 137 96
E 112 141 101
E 112 146 99
E 112 149 103
E 112 150 93
E 112 152 106
E 112 153 106
E 113 115 99
E 113 117 98
E 113 119 102
E 113 124 98
E 113 129 99
E 113 132 97
E 113 144 94
E 113 154 105
E 113 157 100
E 113 159 108
E 114 123 105
E 114 136 99
E 114 154 104
E 114 156 109
E 114 158 105
E 114 160 101
E 115 120 100
E 115 121 100
E 115 125 95
E 115 135 97
E 115 143 102
E 115 150 104
E 115 154 92
E 116 123 97
E 116 125 108
E 116 138 96
E 116 144 98
E 116 150 98
E 116 154 111
E 116 159 97
E 117 118 96
E 117 124 99
E 117 130 97
E 117 142 111
E 117 146 97
E 117 151 101
E 117 153 101
E 117 154 107
E 118 120 104
E 118 123 99
E 118 132 97
E 118 144 108
E 118 157 106
E 118 158 94
E 119 120 98
E 119 121 96
E 119 127 98
E 119 129 101
E 119 131 109
E 119 139 106
E 119 143 104
E 119 145 93
E 119 146 99
E 119 148 101
E 120 125 106
E 120 128 83
E 120 136 104
E 120 158 93
E 120 159 102
E 121 125 103
E 121 127 93
E 121 128 99
E 121 136 88
E 121 140 87
E 121 141 99
E 121 145 93
E 121 149 100
E 122 130 97
E 122 132 101
E 122 146 96
E 122 156 101
E 122 157 100
E 122 159 99
E 123 125 88
E 123 127 98
E 123 134 107
E 123 140 98
E 123 144 101
E 123 149 103
E 123 150 109
E 123 152 99
E 123 154 97
E 123 155 107
E 123 156 97
E 124 131 109
E 124 134 95
E 124 136 102
E 124 137 105
E 124 140 98
E 124 141 101
E 124 152 94
E 125 127 95
E 125 129 107
E 125 150 85
E 125 154 105
E 126 128 105
E 126 141 94
E 126 144 99
E 126 152 95
E 127 137 108
E 127 140 99
E 127 141 96
E 127 157 97
E 128 134 101
E 128 135 97
E 128 146 100
E 128 152 99
E 128 156 102
E 129 136 89
E 129 139 104
E 129 141 98
E 129 148 98
E 129 153 95
E 129 156 100
E 129 159 101
E 130 145 94
E 130 147 98
E 130 149 96
E 130 151 101
E 130 155 93
E 130 157 96
E 131 135 99
E 131 140 100
E 131 149 90
E 131 150 100
E 132 141 95
E 132 146 100
E 133 135 98
E 133 136 89
E 133 139 97
E 133 141 98
E 133 147 98
E 133 151 89
E 134 135 101
E 134 136 96
E 134 142 103
E 134 146 101
E 134 152 108
E 134 160 86
E 135 136 84
E 135 139 106
E 135 141 90
E 135 148 91
E 135 152 94
E 135 158 92
E 136 139 99
E 136 142 102
E 136 144 97
E 136 146 99
E 136 153 94
E 136 160 100
E 137 140 100
E 137 143 98
E 137 144 104
E 137 148 91
E 137 149 108
E 137 158 102
E 138 144 99
E 139 146 102
E 139 154 94
E 140 142 103
E 140 145 95
E 140 148 99
E 140 151 105
E 140 153 94
E 140 159 90
E 141 142 109
E 141 144 96
E 141 148 106
E 141 149 96
E 141 150 99
E 142 150 104
E 142 154 96
E 142 156 104
E 143 144 89
E 143 145 88
E 143 148 113
E 144 147 92
E 144 151 101
E 144 156 101
E 144 159 99
E 145 148 104
E 145 150 106
E 145 156 99
E 145 159 98
E 145 160 105
E 147 152 89
E 147 153 88
E 147 154 95
E 148 149 106
E 148 152 98
E 148 155 96
E 148 158 102
E 148 160 96
E 149 154 90
E 149 155 99
E 150 151 103
E 150 158 102
E 150 159 100
E 151 156 96
E 152 156 102
E 154 157 95
E 157 158 91
END

SECTION Terminals
Terminals 24
T 1
T 2
T 3
T 4
T 5
T 6
T 7
T 8
T 9
T 10
T 11
T 12
T 13
T 14
T 15
T 16
T 17
T 18
T 19
T 20
T 21
T 22
T 23
T 24
END

EOF
